MARKOV
10
3 27 9 3 3 18 2 9 3 3 
16
1 0
1 1
1 2
1 3
1 4
1 5
1 6
1 7
1 8
1 9
2 0 1
2 1 2
2 2 4
2 4 5
2 5 7
2 5 8

3
0.014963 0.000001 0.073931 
27
0.000169 0.000013 0.000001 0.068822 0.201796 0.043564 0.038159 1.000000 0.000850 0.000117 0.000031 0.000001 0.000049 0.000149 0.000004 0.000001 0.000011 0.000001 0.004070 0.194530 0.000408 0.063272 0.377233 0.056767 0.001205 0.023149 0.120722 
9
0.000001 0.000001 0.000001 0.000004 0.000001 0.000001 0.000029 1.000000 0.000001 
3
0.000003 0.000003 1.000000 
3
0.013286 0.003991 1.000000 
18
0.000001 0.000001 0.000001 0.000001 0.000001 0.000001 0.044151 0.189465 1.000000 0.242188 0.039718 0.000002 0.000001 0.758817 0.070518 0.000070 0.006055 0.000710 
2
1.000000 0.050224 
9
0.000001 0.000001 0.000001 0.000001 0.000001 0.000001 0.000090 1.000000 0.000004 
3
0.000001 0.000001 0.024555 
3
0.000001 0.003345 0.583999 
81
1.000000 1.000000 1.000000 1.000000 1.000000 1.000000 1.000000 1.000000 1.000000 1.000000 1.000000 1.000000 1.000000 1.000000 1.000000 1.000000 1.000000 1.000000 0.059967 1.000000 0.916757 1.000000 1.000000 1.000000 1.000000 1.000000 1.000000 1.000000 1.000000 1.000000 1.000000 1.000000 1.000000 1.000000 1.000000 1.000000 1.000000 1.000000 1.000000 1.000000 1.000000 1.000000 1.000000 1.000000 1.000000 1.000000 1.000000 1.000000 1.000000 1.000000 1.000000 1.000000 1.000000 1.000000 1.000000 1.000000 1.000000 1.000000 1.000000 1.000000 1.000000 1.000000 1.000000 1.000000 1.000000 1.000000 1.000000 1.000000 1.000000 1.000000 1.000000 1.000000 1.000000 1.000000 1.000000 1.000000 1.000000 1.000000 1.000000 1.000000 1.000000 
243
1.000000 1.000000 1.000000 1.000000 1.000000 1.000000 0.000001 0.000017 0.000001 1.000000 1.000000 1.000000 1.000000 1.000000 1.000000 0.000001 0.043499 0.000001 1.000000 1.000000 1.000000 1.000000 1.000000 1.000000 0.000001 0.000001 0.000001 1.000000 1.000000 1.000000 1.000000 1.000000 1.000000 0.449645 1.000000 0.002767 1.000000 1.000000 1.000000 1.000000 1.000000 1.000000 0.602377 1.000000 0.003491 1.000000 1.000000 1.000000 1.000000 1.000000 1.000000 0.620493 1.000000 0.003575 1.000000 1.000000 1.000000 1.000000 1.000000 1.000000 1.000000 1.000000 0.047515 1.000000 1.000000 1.000000 1.000000 1.000000 1.000000 0.357698 1.000000 0.002312 1.000000 1.000000 1.000000 1.000000 1.000000 1.000000 0.946316 1.000000 0.005028 1.000000 1.000000 1.000000 1.000000 1.000000 1.000000 1.000000 1.000000 1.000000 1.000000 1.000000 1.000000 1.000000 1.000000 1.000000 1.000000 1.000000 1.000000 1.000000 1.000000 1.000000 1.000000 1.000000 1.000000 1.000000 1.000000 1.000000 1.000000 1.000000 1.000000 1.000000 1.000000 1.000000 1.000000 1.000000 1.000000 1.000000 1.000000 1.000000 1.000000 1.000000 1.000000 1.000000 1.000000 1.000000 1.000000 1.000000 1.000000 1.000000 1.000000 1.000000 1.000000 1.000000 1.000000 1.000000 1.000000 1.000000 1.000000 1.000000 1.000000 1.000000 1.000000 1.000000 1.000000 1.000000 1.000000 1.000000 1.000000 1.000000 1.000000 1.000000 1.000000 1.000000 1.000000 1.000000 1.000000 1.000000 1.000000 1.000000 1.000000 1.000000 1.000000 1.000000 1.000000 1.000000 1.000000 1.000000 1.000000 1.000000 1.000000 1.000000 1.000000 1.000000 1.000000 1.000000 1.000000 1.000000 1.000000 1.000000 1.000000 1.000000 1.000000 1.000000 1.000000 1.000000 1.000000 1.000000 1.000000 1.000000 1.000000 1.000000 1.000000 1.000000 1.000000 1.000000 1.000000 1.000000 1.000000 1.000000 1.000000 1.000000 1.000000 1.000000 1.000000 1.000000 1.000000 1.000000 1.000000 1.000000 1.000000 1.000000 1.000000 1.000000 1.000000 1.000000 1.000000 1.000000 1.000000 1.000000 1.000000 1.000000 1.000000 1.000000 1.000000 1.000000 1.000000 1.000000 1.000000 1.000000 1.000000 1.000000 1.000000 1.000000 1.000000 1.000000 1.000000 1.000000 1.000000 1.000000 1.000000 1.000000 1.000000 
27
1.000000 1.000000 0.000001 1.000000 1.000000 0.000001 1.000000 1.000000 0.000001 1.000000 1.000000 0.344640 1.000000 1.000000 1.000000 1.000000 1.000000 1.000000 1.000000 1.000000 1.000000 1.000000 1.000000 1.000000 1.000000 1.000000 1.000000 
54
1.000000 1.000000 1.000000 1.000000 1.000000 1.000000 1.000000 1.000000 1.000000 1.000000 1.000000 1.000000 0.006142 0.003680 1.000000 1.000000 0.000295 1.000000 1.000000 1.000000 1.000000 1.000000 1.000000 1.000000 1.000000 1.000000 1.000000 1.000000 1.000000 1.000000 1.000000 1.000000 1.000000 1.000000 1.000000 1.000000 1.000000 1.000000 1.000000 1.000000 1.000000 1.000000 1.000000 1.000000 1.000000 1.000000 1.000000 1.000000 1.000000 1.000000 1.000000 1.000000 1.000000 1.000000 
162
1.000000 1.000000 1.000000 1.000000 1.000000 1.000000 1.000000 1.000000 1.000000 1.000000 1.000000 0.000136 1.000000 1.000000 1.000000 1.000000 1.000000 1.000000 1.000000 1.000000 1.000000 1.000000 1.000000 1.000000 1.000000 1.000000 1.000000 1.000000 1.000000 1.000000 1.000000 1.000000 1.000000 1.000000 1.000000 1.000000 1.000000 1.000000 0.000215 1.000000 1.000000 1.000000 1.000000 1.000000 1.000000 1.000000 1.000000 1.000000 1.000000 1.000000 1.000000 1.000000 1.000000 1.000000 0.000001 0.000001 0.000001 1.000000 1.000000 1.000000 1.000000 1.000000 1.000000 0.000008 0.000001 0.000001 1.000000 1.000000 1.000000 1.000000 1.000000 1.000000 0.018401 0.000001 0.000001 1.000000 1.000000 1.000000 1.000000 1.000000 1.000000 0.004306 0.000001 0.000001 1.000000 1.000000 1.000000 1.000000 1.000000 1.000000 0.000001 0.000001 0.000001 1.000000 1.000000 1.000000 1.000000 1.000000 1.000000 0.003146 0.000001 0.000001 1.000000 1.000000 1.000000 1.000000 1.000000 1.000000 1.000000 1.000000 1.000000 1.000000 1.000000 1.000000 1.000000 1.000000 1.000000 1.000000 1.000000 1.000000 1.000000 1.000000 1.000000 1.000000 1.000000 1.000000 1.000000 1.000000 1.000000 1.000000 1.000000 1.000000 1.000000 1.000000 1.000000 1.000000 1.000000 1.000000 1.000000 1.000000 1.000000 1.000000 1.000000 1.000000 1.000000 1.000000 1.000000 1.000000 1.000000 1.000000 1.000000 1.000000 1.000000 1.000000 1.000000 1.000000 1.000000 1.000000 1.000000 1.000000 1.000000 1.000000 
54
1.000000 1.000000 0.000001 1.000000 1.000000 0.000001 1.000000 1.000000 0.000001 1.000000 1.000000 0.000001 1.000000 1.000000 0.000001 1.000000 1.000000 0.000001 1.000000 1.000000 1.000000 1.000000 1.000000 1.000000 1.000000 1.000000 1.000000 1.000000 1.000000 1.000000 1.000000 1.000000 1.000000 1.000000 1.000000 1.000000 1.000000 1.000000 1.000000 1.000000 1.000000 1.000000 1.000000 1.000000 1.000000 1.000000 1.000000 1.000000 1.000000 1.000000 1.000000 1.000000 1.000000 1.000000 
